3681.02
0 43 38 42 2 5 9 3 10 7 15 8 4 11 12 13 6 1 18 21 20 23 37 34 58 51 0
0 16 17 14 24 19 61 63 57 0
0 85 76 22 28 26 67 73 29 25 27 0
0 33 35 31 32 30 39 36 0
0 45 48 49 47 40 44 68 41 46 52 0
0 50 69 60 55 54 56 53 0
0 94 75 91 78 80 70 71 74 66 99 98 62 64 59 0
0 72 65 100 81 0
0 86 88 83 79 84 82 87 0
0 89 92 93 95 90 77 0
0 96 97 0
